(set-info :smt-lib-version 2.6)
(set-logic QF_UFLRA)
(set-info :source |
MathSat group

|)
(set-info :category "random")
(set-info :status sat)
(declare-fun x0 () Real)
(declare-fun x1 () Real)
(declare-fun x2 () Real)
(declare-fun x3 () Real)
(declare-fun x4 () Real)
(declare-fun x5 () Real)
(declare-fun x6 () Real)
(declare-fun x7 () Real)
(declare-fun x8 () Real)
(declare-fun x9 () Real)
(declare-fun x10 () Real)
(declare-fun x11 () Real)
(declare-fun x12 () Real)
(declare-fun x13 () Real)
(declare-fun x14 () Real)
(declare-fun x15 () Real)
(declare-fun x16 () Real)
(declare-fun x17 () Real)
(declare-fun x18 () Real)
(declare-fun x19 () Real)
(declare-fun x20 () Real)
(declare-fun x21 () Real)
(declare-fun x22 () Real)
(declare-fun x23 () Real)
(declare-fun x24 () Real)
(declare-fun x25 () Real)
(declare-fun x26 () Real)
(declare-fun x27 () Real)
(declare-fun x28 () Real)
(declare-fun x29 () Real)
(declare-fun x30 () Real)
(declare-fun x31 () Real)
(declare-fun x32 () Real)
(declare-fun x33 () Real)
(declare-fun x34 () Real)
(declare-fun x35 () Real)
(declare-fun x36 () Real)
(declare-fun x37 () Real)
(declare-fun x38 () Real)
(declare-fun x39 () Real)
(declare-fun f0_1 (Real) Real)
(declare-fun f0_2 (Real Real) Real)
(declare-fun f0_3 (Real Real Real) Real)
(declare-fun f0_4 (Real Real Real Real) Real)
(declare-fun P0 () Bool)
(declare-fun P1 () Bool)
(declare-fun P2 () Bool)
(declare-fun P3 () Bool)
(declare-fun P4 () Bool)
(declare-fun P5 () Bool)
(declare-fun P6 () Bool)
(declare-fun P7 () Bool)
(declare-fun P8 () Bool)
(declare-fun P9 () Bool)
(declare-fun P10 () Bool)
(declare-fun P11 () Bool)
(declare-fun P12 () Bool)
(declare-fun P13 () Bool)
(declare-fun P14 () Bool)
(declare-fun P15 () Bool)
(declare-fun P16 () Bool)
(declare-fun P17 () Bool)
(declare-fun P18 () Bool)
(declare-fun P19 () Bool)
(declare-fun P20 () Bool)
(declare-fun P21 () Bool)
(declare-fun P22 () Bool)
(declare-fun P23 () Bool)
(declare-fun P24 () Bool)
(declare-fun P25 () Bool)
(declare-fun P26 () Bool)
(declare-fun P27 () Bool)
(declare-fun P28 () Bool)
(declare-fun P29 () Bool)
(declare-fun P30 () Bool)
(declare-fun P31 () Bool)
(declare-fun P32 () Bool)
(declare-fun P33 () Bool)
(declare-fun P34 () Bool)
(declare-fun P35 () Bool)
(declare-fun P36 () Bool)
(declare-fun P37 () Bool)
(declare-fun P38 () Bool)
(declare-fun P39 () Bool)
(assert (let ((?v_55 (* 2 x3)) (?v_1 (* 7 x23))) (let ((?v_60 (< (- (+ (* 47 x22) ?v_1) (* 31 x4)) 29)) (?v_107 (* 9 x2))) (let ((?v_121 (< (- (+ ?v_107 (* 56 x11)) (* 23 x39)) 10)) (?v_71 (<= (+ (- ?v_55 (* 15 x9)) (* 41 x37)) 52)) (?v_57 (* 29 x14)) (?v_96 (<= (- (- (* 53 x10) (* 2 x2)) (* 7 x37)) 34)) (?v_87 (distinct x33 x30)) (?v_139 (= x22 x37)) (?v_122 (distinct (f0_1 x37) (f0_2 x11 x37))) (?v_25 (= (f0_2 x18 x36) x13)) (?v_32 (f0_1 x24)) (?v_15 (f0_1 x5))) (let ((?v_180 (distinct ?v_32 ?v_15)) (?v_128 (f0_1 x21))) (let ((?v_160 (= (f0_2 x14 x17) ?v_128)) (?v_91 (= (f0_1 x29) (f0_2 x30 x24))) (?v_132 (distinct (f0_2 x18 x10) ?v_128)) (?v_79 (distinct (f0_2 x15 x18) (f0_2 x19 x11))) (?v_64 (= x12 x29)) (?v_52 (distinct (f0_1 x18) x16)) (?v_102 (= (f0_1 x14) (f0_1 x11))) (?v_2 (distinct x34 (f0_2 x12 x34))) (?v_119 (= (f0_2 x37 x9) (f0_2 x26 x31))) (?v_147 (distinct (f0_2 x4 x0) (f0_2 x16 x20))) (?v_166 (f0_1 x2))) (let ((?v_44 (distinct (f0_2 x34 x20) ?v_166)) (?v_105 (= x0 x9)) (?v_76 (= x27 (f0_2 x4 x10))) (?v_74 (= x11 (f0_1 x6))) (?v_162 (distinct (f0_2 x17 x21) (f0_1 x4))) (?v_9 (distinct (f0_2 x24 x37) x2)) (?v_158 (distinct (f0_2 x35 x3) (f0_1 x13))) (?v_66 (distinct x35 x26)) (?v_34 (distinct x9 x11)) (?v_49 (distinct (f0_2 x27 x14) x5)) (?v_86 (distinct (f0_2 x34 x39) ?v_15)) (?v_165 (f0_2 x23 x9))) (let ((?v_197 (= ?v_165 ?v_166)) (?v_100 (= x28 (f0_2 x15 x5))) (?v_4 (distinct (f0_1 x3) (f0_2 x33 x11))) (?v_31 (distinct x17 (f0_2 x27 x17))) (?v_134 (distinct (f0_2 x20 x8) (f0_1 x28))) (?v_35 (f0_1 x23))) (let ((?v_80 (= x14 ?v_35)) (?v_8 (= ?v_165 (f0_2 x2 x33))) (?v_138 (= (f0_2 x26 x16) (f0_1 x25))) (?v_182 (distinct (f0_1 x34) ?v_35)) (?v_0 (distinct x11 x15)) (?v_30 (= x34 x30)) (?v_69 (distinct x32 (f0_2 x2 x23))) (?v_127 (= x1 x12)) (?v_41 (= (f0_2 x30 x31) ?v_32)) (?v_26 (not ?v_74))) (let ((?v_63 (not ?v_182)) (?v_10 (not ?v_49)) (?v_117 (not ?v_8)) (?v_152 (not P37)) (?v_136 (not ?v_2)) (?v_20 (not ?v_4)) (?v_23 (not ?v_60)) (?v_83 (not ?v_0)) (?v_21 (not P8)) (?v_33 (not P15)) (?v_5 (not P20)) (?v_195 (not P16)) (?v_115 (not ?v_66)) (?v_48 (not ?v_121)) (?v_16 (not P11)) (?v_40 (not P7)) (?v_90 (not ?v_180)) (?v_148 (not ?v_34)) (?v_42 (not ?v_79)) (?v_94 (not P27)) (?v_22 (not ?v_52)) (?v_84 (not P34)) (?v_29 (not ?v_9)) (?v_17 (not ?v_139)) (?v_77 (not ?v_105)) (?v_39 (not P28)) (?v_113 (not P33)) (?v_78 (not P21)) (?v_123 (not P2)) (?v_82 (not ?v_25)) (?v_130 (not ?v_30)) (?v_72 (not ?v_31)) (?v_103 (not ?v_119)) (?v_178 (not ?v_80)) (?v_101 (not P13)) (?v_51 (not ?v_41)) (?v_56 (not P22)) (?v_185 (not P19)) (?v_50 (not P14)) (?v_59 (not P5)) (?v_129 (not ?v_71)) (?v_203 (not P6)) (?v_149 (not ?v_100)) (?v_98 (not P23)) (?v_146 (not P24)) (?v_137 (not ?v_76)) (?v_156 (not ?v_69)) (?v_93 (not P1)) (?v_175 (not ?v_87)) (?v_133 (not ?v_91)) (?v_116 (not P26)) (?v_177 (not P10)) (?v_150 (not ?v_96)) (?v_143 (not P18)) (?v_99 (not ?v_102)) (?v_145 (not P25)) (?v_157 (not P9)) (?v_144 (not ?v_134)) (?v_181 (not ?v_162)) (?v_170 (not ?v_86)) (?v_205 (not P0)) (?v_125 (not ?v_122)) (?v_159 (not P30)) (?v_198 (not ?v_44)) (?v_151 (not ?v_127)) (?v_172 (not ?v_138)) (?v_187 (not P35)) (?v_184 (not ?v_158)) (?v_207 (not P3)) (?v_196 (not P12)) (?v_183 (not ?v_160)) (?v_169 (not P31)) (?v_168 (not P17)) (?v_167 (not ?v_197)) (?v_186 (not P36)) (?v_206 (not P4)) (?v_189 (not ?v_132)) (?v_194 (not ?v_64)) (?v_200 (not P29)) (?v_188 (not P32)) (?v_204 (not P38)) (?v_201 (not P39)) (?v_38 (<= (+ (* 10 x3) (* 49 x9)) 33))) (let ((?v_13 (not ?v_38)) (?v_89 (= (+ (* 12 x2) (* 20 x34) (* 21 x37)) 10)) (?v_28 (<= (+ (* 9 x26) (* 19 x26) (* 39 x4)) 54))) (let ((?v_92 (not ?v_28)) (?v_131 (<= (- (- x7 (* 37 x28)) (* 51 x27)) 28)) (?v_193 (not ?v_89)) (?v_3 (<= (- (- (* (- 56) x34) (* 47 x27)) (* 37 x6)) (- 24)))) (let ((?v_112 (not ?v_3)) (?v_173 (< (+ (- (* (- 56) x11) (* 26 x24)) (* 4 x16)) 17))) (let ((?v_155 (not ?v_173)) (?v_45 (< (+ (- ?v_57 (* 51 x8)) ?v_1) (- 37))) (?v_54 (< (+ (* (- 12) x8) (* 13 x6) (* 46 x33)) (- 47)))) (let ((?v_95 (not ?v_54)) (?v_58 (<= (+ (* 33 x31) (* 36 x36) (* 5 x5)) (- 9)))) (let ((?v_27 (not ?v_58)) (?v_6 (= (- (- (* (- 39) x35) (* 46 x35)) (* 38 x39)) 28)) (?v_154 (< (- (- (* (- 52) x1) (* 28 x4)) (* 25 x1)) 39))) (let ((?v_65 (not ?v_154)) (?v_47 (< (- (+ (* 2 x12) (* 40 x27)) (* 42 x15)) (- 22))) (?v_7 (= (- (+ (* (- 30) x5) (* 39 x22)) (* 26 x7)) (- 6)))) (let ((?v_176 (not ?v_7)) (?v_126 (<= (- (+ (* (- 47) x5) (* 13 x4)) (* 8 x36)) (- 26)))) (let ((?v_97 (not ?v_126)) (?v_19 (< (+ (- (* (- 5) x18) x14) (* 57 x8)) (- 29)))) (let ((?v_24 (not ?v_19)) (?v_14 (< (+ (- (* (- 51) x5) (* 21 x31)) x30) (- 6)))) (let ((?v_12 (not ?v_14)) (?v_11 (<= (- (- (* (- 17) x5) (* 22 x38)) (* 21 x9)) (- 40)))) (let ((?v_114 (not ?v_11)) (?v_191 (< (- (- (* (- 52) x13) (* 55 x38)) (* 36 x2)) (- 2)))) (let ((?v_46 (not ?v_191)) (?v_18 (< (+ (* (- 12) x31) (* 22 x21) (* 20 x27)) (- 25)))) (let ((?v_135 (not ?v_18)) (?v_36 (< (- (- (* 56 x13) (* 57 x21)) (* 8 x28)) (- 4))) (?v_68 (distinct (+ (* (- 29) x11) (* 47 x28) (* 46 x11)) (- 43))) (?v_104 (not (<= (+ (* (- 40) x24) (* 51 x32) (* 52 x9)) (- 55)))) (?v_43 (= (+ (- (* (- 49) x13) ?v_55) (* 44 x28)) (- 13))) (?v_85 (< (+ (* 48 x6) (* 49 x34) (* 57 x25)) (- 1)))) (let ((?v_124 (not ?v_85)) (?v_37 (<= (- (- (* 12 x35) (* 57 x1)) (* 20 x12)) (- 35)))) (let ((?v_108 (not ?v_37)) (?v_111 (distinct (+ (- (* (- 7) x39) (* 42 x8)) (* 34 x14)) (- 14)))) (let ((?v_53 (not ?v_111)) (?v_153 (not ?v_36)) (?v_67 (<= (+ (- (* 14 x33) (* 2 x6)) (* 15 x19)) (- 21)))) (let ((?v_70 (not ?v_67)) (?v_81 (not ?v_47)) (?v_171 (not ?v_43)) (?v_142 (not ?v_45)) (?v_106 (= (+ (- (* 13 x13) (* 6 x12)) (* 41 x27)) (- 59)))) (let ((?v_109 (not ?v_106)) (?v_61 (<= (- (- (* (- 7) x20) x37) (* 30 x2)) (- 2)))) (let ((?v_62 (not ?v_61)) (?v_75 (<= (+ (- (* (- 44) x13) (* 28 x17)) ?v_57) (- 36))) (?v_120 (< (+ (- (* (- 28) x15) (* 23 x38)) (* 52 x29)) (- 3)))) (let ((?v_88 (not ?v_120)) (?v_73 (not ?v_6)) (?v_161 (not ?v_75)) (?v_199 (= (- (+ (* 10 x19) (* 46 x31)) (* 18 x7)) (- 7)))) (let ((?v_140 (not ?v_199)) (?v_141 (<= (+ (- (* 15 x14) (* 22 x12)) (* 16 x22)) (- 22)))) (let ((?v_163 (not ?v_141)) (?v_110 (< (- (- (* (- 36) x13) (* 49 x33)) (* 12 x32)) 59)) (?v_118 (< (+ (- (* 36 x12) 0) (* 28 x31)) (- 51)))) (let ((?v_164 (not ?v_118)) (?v_174 (< (+ ?v_107 (* 35 x33) (* 37 x38)) (- 50))) (?v_179 (not ?v_68)) (?v_192 (not ?v_110))) (let ((?v_190 (not ?v_174)) (?v_202 (or ?v_84 ?v_70))) (and (and (and (and (and (and (and (and (and (and (and (and (and (and (and (and (and (and (and (and (and (and (and (and (and (and (and (and (and (and (and (and (and (and (and (and (and (and (and (and (and (and (and (and (and (and (and (and (and (and (and (and (and (and (and (and (and (and (and (and (and (and (and (and (and (and (and (and (and (and (and (and (and (and (and (and (and (and (and (and (and (and (and (and (and (and (and (and (and (and (and (and (and (and (and (and (and (and (and (and (and (and (and (and (and (and (and (and (and (and (and (and (and (and (and (and (and (and (and (and (and (and (and (and (and (and (and (and (and (and (and (and (and (and (and (and (and (and (and (and (and (and (and (and (and (and (and (and (and (and (and (and (and (and (and (and (and (and (and (and (and (and (and (and (and (and (and (and (and (and (and (and (and (and (and (and (and (and (and (and (and (and (and (and (and (and (and (and (and (and (and (and (and (and (and (and (and (and (and (and (and (and (and (and (and (and (and (and (and (and (and (and (and (and (and (and (and (and (and (and (and (and (and (and (and (and (and (and (and (and (and (and (and (and (and (and (and (and (and (and (and (and (and (and (and (and (and (and (and (and (and (and (and (and (and (and (and (and (and (and (and (and (and (and (and (and (and (and (and (and (and (and (and (and (and (and (and (and (and (and (and (and (and (and (and (and (and (and (and (and (and (and (and (and (and (and (and (and (and (and (and (and (and (and (and (and (and (and (and (and (and (and (and (and (and (and (and (and (and (and (and (and (and (and (and (and (and (and (and (and (and (and (and (and (and (and (and (and (and (and (and (and (and (and (and (and (and (and (and (and (and (and (and (and (and (and (and (and (and (and (and (and (and (and (and (and (and (and (and (and (and (and (and (and (and (and (and (and (and (and (and (and (and (and (and (and (and (and (and (and (and (and (and (and (and (and (and (and (and (and (and (and (and (and (and (and (and (and (and (and (and (and (and (and (and (and (and (and (and (and (and (and (and (and (and (and (and (and (and (and (and (and (and (and (and (and (and (and (and (and (and (and (and (and (and (and (and (and (and (and (and (and (and (and (and (and (and (and (and (and (and (and (and (and (and (and (and (and (and (and (and (and (and (and (and (and (and (and (and (or (or ?v_26 ?v_63) ?v_31) (or (or ?v_10 P21) ?v_112)) (or (or ?v_117 P1) ?v_152)) (or (or ?v_136 ?v_20) ?v_64)) (or (or ?v_155 ?v_23) ?v_0)) (or (or P3 ?v_83) ?v_45)) (or (or P8 P28) ?v_2)) (or (or ?v_21 P27) ?v_95)) (or (or ?v_33 ?v_27) P32)) (or (or ?v_6 P15) ?v_65)) (or (or ?v_5 P18) ?v_47)) (or (or ?v_195 ?v_3) ?v_4)) (or (or P22 ?v_115) ?v_5)) (or (or P39 ?v_9) ?v_25)) (or (or P9 P21) ?v_176)) (or (or ?v_97 P1) ?v_6)) (or (or ?v_3 ?v_48) ?v_16)) (or (or ?v_127 ?v_40) ?v_13)) (or (or ?v_44 ?v_24) P30)) (or (or ?v_90 ?v_148) ?v_42)) (or (or ?v_94 ?v_12) ?v_114)) (or (or ?v_46 ?v_135) ?v_22)) (or (or ?v_7 ?v_84) ?v_8)) (or (or ?v_29 ?v_7) ?v_17)) (or (or ?v_10 P34) ?v_77)) (or (or ?v_89 ?v_11) ?v_12)) (or (or ?v_13 ?v_14) P28)) (or (or P19 ?v_86) ?v_16)) (or (or ?v_39 ?v_17) ?v_113)) (or (or ?v_18 ?v_78) ?v_123)) (or (or ?v_19 ?v_36) ?v_68)) (or (or ?v_87 ?v_20) P35)) (or (or ?v_21 ?v_28) ?v_104)) (or (or ?v_22 ?v_23) ?v_30)) (or (or ?v_24 ?v_82) ?v_26)) (or (or ?v_43 ?v_27) P18)) (or (or ?v_28 ?v_29) ?v_130)) (or (or ?v_72 ?v_28) ?v_103)) (or (or ?v_41 ?v_33) P30)) (or (or ?v_34 ?v_124) ?v_108)) (or (or ?v_178 ?v_69) ?v_53)) (or (or ?v_101 ?v_2) ?v_153)) (or (or ?v_70 P37) ?v_37)) (or (or ?v_138 ?v_96) ?v_38)) (or (or ?v_91 ?v_39) ?v_34)) (or (or ?v_40 ?v_51) ?v_42)) (or (or ?v_43 ?v_56) ?v_20)) (or (or P3 ?v_44) ?v_45)) (or (or ?v_46 ?v_185) ?v_92)) (or (or ?v_81 ?v_29) ?v_30)) (or (or ?v_171 ?v_50) ?v_48)) (or (or ?v_76 P26) ?v_45)) (or (or P20 ?v_49) ?v_50)) (or (or ?v_142 ?v_51) ?v_109)) (or (or ?v_62 ?v_59) ?v_52)) (or (or ?v_53 ?v_54) ?v_44)) (or (or ?v_129 P25) ?v_56)) (or (or ?v_203 P6) P29)) (or (or ?v_75 P24) ?v_58)) (or (or ?v_59 ?v_60) ?v_21)) (or (or P9 ?v_61) P36)) (or (or ?v_149 ?v_62) ?v_63)) (or (or ?v_48 ?v_64) ?v_98)) (or (or ?v_65 P21) ?v_146)) (or (or ?v_40 ?v_66) ?v_67)) (or (or ?v_68 ?v_69) ?v_88)) (or (or P36 ?v_16) ?v_73)) (or (or ?v_70 ?v_61) ?v_71)) (or (or ?v_72 ?v_73) ?v_74)) (or (or ?v_61 P6) ?v_161)) (or (or ?v_137 P29) ?v_77)) (or (or ?v_156 ?v_45) ?v_78)) (or (or ?v_140 P10) ?v_79)) (or (or ?v_30 ?v_80) ?v_81)) (or (or P28 ?v_82) P23)) (or (or ?v_6 ?v_8) ?v_5)) (or (or ?v_71 ?v_40) ?v_21)) (or (or ?v_93 ?v_64) P8)) (or (or ?v_56 ?v_64) ?v_37)) (or (or ?v_83 ?v_84) ?v_163)) (or (or ?v_33 ?v_85) ?v_131)) (or (or ?v_86 ?v_18) ?v_175)) (or (or ?v_88 ?v_44) P6)) (or (or ?v_132 ?v_193) ?v_90)) (or (or ?v_133 ?v_92) P28)) (or (or ?v_93 ?v_2) P38)) (or (or ?v_94 P33) ?v_110)) (or (or P5 P2) ?v_116)) (or (or ?v_13 ?v_80) ?v_122)) (or (or ?v_43 ?v_95) ?v_177)) (or (or ?v_150 ?v_97) ?v_143)) (or (or ?v_164 ?v_98) ?v_99)) (or (or ?v_99 ?v_0) ?v_100)) (or (or ?v_101 P39) ?v_100)) (or (or P22 ?v_47) ?v_145)) (or (or ?v_93 ?v_102) ?v_103)) (or (or ?v_49 ?v_104) ?v_2)) (or (or ?v_27 ?v_63) ?v_157)) (or (or ?v_98 ?v_71) P25)) (or (or ?v_20 ?v_19) P34)) (or (or ?v_144 ?v_2) P0)) (or (or ?v_105 ?v_90) ?v_106)) (or (or P14 ?v_174) P2)) (or (or ?v_108 ?v_109) ?v_22)) (or (or P9 ?v_86) ?v_181)) (or (or ?v_110 ?v_5) ?v_75)) (or (or ?v_104 ?v_49) ?v_40)) (or (or ?v_111 P29) ?v_112)) (or (or P4 ?v_113) ?v_9)) (or (or ?v_63 ?v_114) ?v_115)) (or (or ?v_116 ?v_117) ?v_170)) (or (or ?v_118 P36) ?v_56)) (or (or ?v_119 P32) ?v_120)) (or (or ?v_205 ?v_121) ?v_66)) (or (or ?v_125 ?v_29) ?v_16)) (or (or ?v_108 ?v_19) P29)) (or (or ?v_84 P25) ?v_123)) (or (or ?v_24 ?v_12) P21)) (or (or ?v_124 ?v_41) ?v_159)) (or (or ?v_69 ?v_92) ?v_198)) (or (or ?v_47 ?v_125) ?v_31)) (or (or ?v_126 ?v_127) ?v_10)) (or (or ?v_102 ?v_160) ?v_3)) (or (or ?v_95 P34) ?v_151)) (or (or P28 ?v_71) ?v_25)) (or (or ?v_129 ?v_147) ?v_130)) (or (or ?v_131 ?v_5) ?v_129)) (or (or ?v_100 ?v_132) ?v_133)) (or (or ?v_34 P28) ?v_134)) (or (or ?v_41 ?v_135) ?v_136)) (or (or P36 P8) ?v_88)) (or (or ?v_80 ?v_137) ?v_33)) (or (or ?v_172 ?v_106) ?v_23)) (or (or ?v_100 ?v_133) ?v_87)) (or (or ?v_187 P39) ?v_58)) (or (or ?v_139 P27) ?v_23)) (or (or ?v_29 P8) P36)) (or (or ?v_102 P11) ?v_140)) (or (or ?v_141 ?v_137) ?v_142)) (or (or ?v_54 ?v_143) ?v_90)) (or (or ?v_125 ?v_116) ?v_43)) (or (or P33 ?v_144) ?v_145)) (or (or P3 ?v_45) ?v_37)) (or (or ?v_123 ?v_116) ?v_146)) (or (or ?v_141 ?v_147) ?v_184)) (or (or ?v_36 ?v_85) ?v_138)) (or (or ?v_148 ?v_78) ?v_149)) (or (or ?v_141 P22) P1)) (or (or ?v_150 ?v_82) ?v_151)) (or (or ?v_86 ?v_24) P7)) (or (or P2 ?v_10) ?v_73)) (or (or ?v_58 ?v_73) ?v_152)) (or (or P35 P20) ?v_129)) (or (or ?v_42 ?v_17) ?v_207)) (or (or ?v_34 P33) ?v_71)) (or (or ?v_100 ?v_151) ?v_153)) (or (or ?v_154 ?v_125) ?v_85)) (or (or ?v_33 ?v_34) P1)) (or (or ?v_155 ?v_156) ?v_157)) (or (or ?v_102 P9) P6)) (or (or ?v_64 ?v_108) P21)) (or (or ?v_104 ?v_93) ?v_105)) (or (or ?v_196 ?v_70) P14)) (or (or ?v_101 ?v_58) ?v_11)) (or (or ?v_58 ?v_44) ?v_103)) (or (or ?v_148 ?v_77) ?v_63)) (or (or ?v_119 P16) ?v_149)) (or (or ?v_158 ?v_30) ?v_126)) (or (or ?v_53 ?v_142) ?v_51)) (or (or ?v_123 ?v_133) P12)) (or (or ?v_27 ?v_43) ?v_154)) (or (or ?v_117 ?v_60) ?v_111)) (or (or P31 P31) ?v_27)) (or (or ?v_149 ?v_43) ?v_74)) (or (or ?v_159 ?v_37) P24)) (or (or ?v_37 ?v_45) ?v_83)) (or (or ?v_16 ?v_73) ?v_49)) (or (or P12 ?v_58) ?v_183)) (or (or ?v_90 ?v_161) ?v_118)) (or (or ?v_162 P11) ?v_163)) (or (or P32 ?v_133) ?v_161)) (or (or ?v_164 ?v_156) ?v_121)) (or (or P36 ?v_149) ?v_4)) (or (or ?v_103 ?v_56) P24)) (or (or ?v_17 ?v_86) ?v_50)) (or (or ?v_154 P12) ?v_158)) (or (or ?v_132 P30) ?v_16)) (or (or ?v_113 ?v_66) ?v_100)) (or (or ?v_179 ?v_99) ?v_90)) (or (or P9 ?v_30) ?v_144)) (or (or ?v_25 ?v_110) ?v_138)) (or (or ?v_86 P2) P38)) (or (or ?v_169 ?v_76) ?v_93)) (or (or ?v_168 ?v_71) P25)) (or (or ?v_167 P20) ?v_123)) (or (or ?v_60 ?v_12) ?v_125)) (or (or ?v_167 ?v_127) ?v_33)) (or (or ?v_79 P23) ?v_124)) (or (or P8 P29) ?v_34)) (or (or ?v_103 ?v_80) ?v_97)) (or (or ?v_11 ?v_192) P8)) (or (or ?v_76 ?v_20) ?v_113)) (or (or P17 ?v_159) ?v_112)) (or (or ?v_186 ?v_105) P19)) (or (or ?v_143 ?v_125) ?v_144)) (or (or P24 ?v_111) ?v_79)) (or (or ?v_42 ?v_106) P22)) (or (or ?v_168 ?v_134) ?v_42)) (or (or ?v_71 ?v_116) ?v_169)) (or (or ?v_90 P28) ?v_14)) (or (or ?v_11 P9) ?v_31)) (or (or ?v_170 ?v_88) ?v_142)) (or (or ?v_171 ?v_40) ?v_143)) (or (or ?v_93 ?v_172) ?v_19)) (or (or ?v_61 ?v_173) ?v_139)) (or (or P26 ?v_16) ?v_30)) (or (or ?v_145 P8) ?v_118)) (or (or ?v_64 ?v_10) ?v_52)) (or (or ?v_163 ?v_41) ?v_113)) (or (or P35 ?v_174) ?v_145)) (or (or ?v_47 ?v_175) ?v_134)) (or (or ?v_148 ?v_60) ?v_176)) (or (or ?v_125 ?v_177) ?v_105)) (or (or ?v_178 P9) ?v_175)) (or (or ?v_115 ?v_106) ?v_70)) (or (or ?v_131 ?v_153) ?v_206)) (or (or ?v_60 ?v_144) ?v_83)) (or (or ?v_179 P21) ?v_25)) (or (or P18 ?v_81) ?v_75)) (or (or ?v_25 ?v_190) ?v_121)) (or (or ?v_56 P23) ?v_61)) (or (or ?v_45 ?v_96) ?v_180)) (or (or ?v_66 ?v_153) ?v_117)) (or (or ?v_172 ?v_97) ?v_181)) (or (or ?v_19 ?v_189) ?v_46)) (or (or P35 ?v_119) ?v_100)) (or (or ?v_132 P24) ?v_2)) (or (or ?v_182 ?v_83) ?v_77)) (or (or ?v_76 ?v_177) ?v_89)) (or (or ?v_74 P12) ?v_99)) (or ?v_202 ?v_183)) (or (or P19 P9) ?v_6)) (or (or ?v_6 ?v_14) ?v_96)) (or (or P7 ?v_112) ?v_176)) (or (or ?v_119 ?v_0) ?v_125)) (or (or ?v_131 ?v_86) ?v_46)) (or (or ?v_10 ?v_133) ?v_194)) (or (or ?v_40 ?v_54) ?v_176)) (or (or ?v_113 ?v_184) ?v_169)) (or (or ?v_48 ?v_42) ?v_178)) (or (or ?v_115 ?v_200) ?v_95)) (or (or P1 ?v_17) ?v_126)) (or (or P33 ?v_174) ?v_182)) (or (or ?v_85 ?v_154) ?v_156)) (or (or P33 ?v_125) ?v_87)) (or (or ?v_135 ?v_176) P21)) (or (or ?v_177 ?v_52) ?v_154)) (or (or ?v_188 ?v_46) P25)) (or (or ?v_139 ?v_41) ?v_171)) (or (or P12 P38) ?v_99)) (or (or ?v_152 ?v_70) ?v_74)) (or (or ?v_27 ?v_7) ?v_62)) (or (or ?v_64 ?v_156) P13)) (or (or P38 ?v_19) ?v_156)) (or (or P24 ?v_46) ?v_36)) (or (or ?v_173 ?v_11) ?v_164)) (or (or ?v_53 ?v_104) ?v_185)) (or (or ?v_11 ?v_17) P21)) (or (or ?v_97 ?v_176) ?v_53)) (or (or ?v_10 P26) ?v_52)) (or (or ?v_33 ?v_120) ?v_104)) (or (or ?v_186 ?v_50) ?v_88)) (or (or ?v_109 ?v_143) ?v_187)) (or (or ?v_111 ?v_142) ?v_7)) (or (or ?v_76 ?v_134) ?v_7)) (or (or P8 ?v_34) ?v_133)) (or (or ?v_4 ?v_49) ?v_116)) (or (or P38 ?v_104) P34)) (or (or ?v_163 ?v_70) ?v_144)) (or (or ?v_49 ?v_118) ?v_95)) (or (or ?v_79 ?v_96) ?v_143)) (or (or ?v_154 ?v_41) ?v_74)) (or (or ?v_94 ?v_28) ?v_115)) (or (or ?v_2 ?v_158) ?v_188)) (or (or ?v_189 P13) P19)) (or (or ?v_17 P9) ?v_10)) (or (or ?v_134 ?v_123) ?v_37)) (or (or P5 P24) P0)) (or (or P1 P26) ?v_94)) (or (or ?v_190 ?v_6) ?v_155)) (or (or P20 P28) ?v_60)) (or (or ?v_54 ?v_39) P8)) (or (or ?v_130 P38) P5)) (or (or ?v_168 ?v_153) ?v_26)) (or (or P38 ?v_84) P17)) (or (or ?v_135 ?v_191) ?v_111)) (or (or ?v_103 ?v_82) P35)) (or (or ?v_189 ?v_53) ?v_127)) (or (or ?v_79 ?v_176) ?v_192)) (or (or ?v_127 ?v_193) ?v_88)) (or (or ?v_19 ?v_90) ?v_102)) (or (or P25 ?v_20) ?v_144)) (or (or ?v_123 ?v_78) ?v_115)) (or (or ?v_103 ?v_37) ?v_99)) (or (or ?v_89 ?v_27) ?v_123)) (or (or ?v_156 ?v_73) ?v_194)) (or (or ?v_27 ?v_144) ?v_7)) (or (or P21 ?v_142) ?v_175)) (or (or ?v_161 ?v_56) ?v_118)) (or (or ?v_164 ?v_111) ?v_17)) (or (or ?v_188 ?v_192) ?v_80)) (or (or P16 P10) ?v_13)) (or (or ?v_85 ?v_52) ?v_161)) (or (or ?v_195 ?v_192) ?v_106)) (or (or ?v_48 ?v_172) P20)) (or (or ?v_126 P27) ?v_8)) (or (or ?v_148 ?v_194) ?v_33)) (or (or ?v_100 ?v_190) ?v_196)) (or (or ?v_18 ?v_90) ?v_61)) (or (or ?v_90 ?v_175) ?v_82)) (or (or ?v_71 ?v_150) ?v_25)) (or (or P14 ?v_131) ?v_145)) (or (or ?v_188 ?v_104) ?v_49)) (or (or ?v_154 ?v_95) ?v_76)) (or (or ?v_179 ?v_17) ?v_2)) (or (or ?v_79 P38) ?v_183)) (or (or ?v_87 ?v_41) ?v_144)) (or (or ?v_102 P6) ?v_197)) (or (or ?v_68 ?v_183) ?v_66)) (or (or ?v_43 ?v_168) ?v_119)) (or (or ?v_150 ?v_191) ?v_16)) (or (or ?v_51 P18) ?v_87)) (or (or ?v_151 ?v_153) ?v_10)) (or (or P10 ?v_41) ?v_45)) (or (or ?v_52 ?v_46) ?v_74)) (or (or ?v_112 ?v_198) ?v_82)) (or (or ?v_112 P22) ?v_204)) (or (or P35 ?v_23) ?v_72)) (or (or ?v_196 ?v_64) P18)) (or (or ?v_41 P25) ?v_5)) (or (or ?v_19 ?v_201) ?v_139)) (or (or ?v_167 ?v_39) ?v_24)) (or (or P7 P8) ?v_199)) (or (or ?v_20 ?v_28) ?v_138)) (or (or ?v_185 ?v_37) ?v_61)) (or (or ?v_31 ?v_161) ?v_172)) (or (or ?v_24 ?v_136) ?v_111)) (or (or ?v_123 ?v_70) ?v_159)) (or (or ?v_139 ?v_63) P4)) (or (or ?v_14 P18) ?v_115)) (or (or ?v_196 ?v_142) ?v_18)) (or (or ?v_168 ?v_91) P38)) (or (or ?v_37 ?v_100) ?v_184)) (or (or ?v_8 ?v_148) ?v_83)) (or (or ?v_108 ?v_200) ?v_62)) (or (or ?v_71 ?v_54) ?v_96)) (or (or ?v_33 ?v_175) ?v_49)) (or (or ?v_49 ?v_159) ?v_136)) (or (or ?v_42 P11) ?v_161)) (or (or P34 ?v_14) ?v_39)) (or (or P39 P32) ?v_197)) (or (or ?v_53 ?v_116) ?v_201)) (or (or ?v_122 ?v_149) ?v_62)) (or (or P8 P34) ?v_92)) (or (or ?v_28 P13) ?v_145)) (or (or ?v_183 ?v_133) ?v_131)) (or (or ?v_199 P39) ?v_137)) (or (or ?v_154 ?v_101) ?v_75)) (or (or ?v_80 ?v_144) ?v_102)) (or (or ?v_29 ?v_153) ?v_77)) (or (or ?v_131 ?v_6) ?v_118)) (or (or ?v_44 ?v_152) ?v_168)) (or ?v_202 ?v_176)) (or (or ?v_87 ?v_196) P36)) (or (or ?v_186 ?v_173) ?v_99)) (or (or ?v_178 ?v_169) P38)) (or (or ?v_47 ?v_85) P0)) (or (or ?v_146 P31) ?v_46)) (or (or ?v_137 ?v_134) ?v_41)) (or (or ?v_180 ?v_145) P11)) (or (or ?v_70 ?v_10) ?v_150)) (or (or ?v_200 ?v_136) P2)) (or (or ?v_43 ?v_167) ?v_33)) (or (or ?v_45 ?v_123) ?v_39)) (or (or ?v_2 ?v_38) P34)) (or (or P39 P7) ?v_88)) (or (or ?v_182 ?v_163) ?v_14)) (or (or ?v_125 ?v_190) ?v_4)) (or (or ?v_47 ?v_30) ?v_25)) (or (or ?v_64 ?v_50) P10)) (or (or ?v_203 ?v_39) ?v_145)) (or (or P36 ?v_169) ?v_164)) (or (or P25 P8) ?v_136)) (or (or ?v_176 ?v_25) ?v_51)) (or (or ?v_132 ?v_12) ?v_162)) (or (or ?v_149 ?v_174) ?v_173)) (or (or ?v_88 ?v_98) ?v_95)) (or (or ?v_181 ?v_38) ?v_6)) (or (or ?v_88 P9) ?v_186)) (or (or ?v_80 ?v_189) ?v_150)) (or (or P4 P2) ?v_115)) (or (or ?v_79 ?v_50) P31)) (or (or ?v_100 ?v_20) P12)) (or (or ?v_36 ?v_125) ?v_127)) (or (or ?v_4 ?v_135) ?v_24)) (or (or ?v_204 ?v_92) ?v_63)) (or (or ?v_18 ?v_137) ?v_178)) (or (or ?v_52 ?v_7) ?v_77)) (or (or ?v_47 ?v_8) ?v_205)) (or (or ?v_182 P30) P38)) (or (or ?v_103 ?v_2) ?v_137)) (or (or ?v_90 ?v_179) ?v_89)) (or (or ?v_188 ?v_101) ?v_169)) (or (or ?v_62 ?v_51) P27)) (or (or P32 ?v_122) ?v_138)) (or (or ?v_24 ?v_153) ?v_64)) (or (or P13 ?v_58) ?v_41)) (or (or ?v_102 ?v_120) ?v_85)) (or (or P19 ?v_71) ?v_95)) (or (or ?v_7 ?v_181) ?v_4)) (or (or ?v_10 P1) ?v_192)) (or (or ?v_66 P37) ?v_161)) (or (or ?v_38 ?v_153) ?v_25)) (or (or ?v_193 ?v_157) ?v_26)) (or (or ?v_182 ?v_175) ?v_186)) (or (or P18 ?v_170) P11)) (or (or ?v_161 ?v_135) ?v_138)) (or (or ?v_5 ?v_80) ?v_61)) (or (or ?v_46 ?v_106) P9)) (or (or ?v_19 P36) ?v_71)) (or (or P25 ?v_76) ?v_181)) (or (or P7 ?v_206) ?v_207)) (or (or ?v_2 ?v_31) ?v_97)) (or (or ?v_180 ?v_125) P24)) (or (or ?v_113 ?v_102) P12)) (or (or ?v_96 ?v_66) P15)) (or (or P13 ?v_6) ?v_154)) (or (or P0 ?v_173) ?v_204)) (or (or ?v_92 P31) ?v_133)) (or (or ?v_196 ?v_23) ?v_66)) (or (or ?v_70 ?v_74) ?v_40)) (or (or ?v_47 P27) ?v_170)) (or (or ?v_193 ?v_199) P31)) (or (or ?v_101 ?v_46) ?v_201)) (or (or ?v_96 ?v_172) P29)) (or (or P18 ?v_74) ?v_179)) (or (or ?v_170 ?v_170) ?v_52)) (or (or ?v_98 ?v_4) ?v_27)) (or (or ?v_145 P38) ?v_161)) (or (or ?v_53 ?v_119) ?v_174)) (or (or ?v_46 ?v_160) ?v_31)) (or (or ?v_40 ?v_124) ?v_27)) (or (or P36 ?v_185) ?v_122)) (or (or P4 ?v_95) (not ?v_147))) (or (or ?v_110 P27) P30)) (or (or ?v_43 ?v_51) ?v_145)) (or (or ?v_194 ?v_137) ?v_121)) (or (or ?v_23 ?v_111) ?v_155)) (or (or ?v_22 ?v_97) ?v_179)) (or (or ?v_53 ?v_92) P31)) (or (or P1 P21) ?v_3)) (or (or ?v_155 ?v_72) ?v_41)) (or (or ?v_16 P13) ?v_195)) (or (or ?v_99 ?v_26) ?v_114)) (or (or ?v_127 ?v_121) ?v_5)) (or (or ?v_68 ?v_163) ?v_124)) (or (or ?v_197 P21) ?v_71)) (or (or ?v_28 ?v_62) ?v_186)) (or (or ?v_185 ?v_104) ?v_0)) (or (or ?v_175 ?v_179) ?v_5)) (or (or ?v_40 ?v_118) ?v_115)) (or (or ?v_68 ?v_101) ?v_189)) (or (or ?v_87 ?v_206) ?v_102)) (or (or ?v_118 ?v_109) P8)) (or (or P25 ?v_53) ?v_179)) (or (or ?v_193 P36) P24)) (or (or ?v_66 ?v_194) ?v_79)) (or (or ?v_149 ?v_114) P10)) (or (or ?v_161 ?v_0) ?v_104)) (or (or P17 P15) P31)))))))))))))))))))))))))))))))))))))
(check-sat)
(exit)
